BAYES
324
2 2 2 2 2 2 2 2 2 2 2 2 2 2 2 2 2 2 2 2 2 2 2 2 2 2 2 2 2 2 2 2 2 2 2 2 2 2 2 2 2 2 2 2 2 2 2 2 2 2 2 2 2 2 2 2 2 2 2 2 2 2 2 2 2 2 2 2 2 2 2 2 2 2 2 2 2 2 2 2 2 2 2 2 2 2 2 2 2 2 2 2 2 2 2 2 2 2 2 2 2 2 2 2 2 2 2 2 2 2 2 2 2 2 2 2 2 2 2 2 2 2 2 2 2 2 2 2 2 2 2 2 2 2 2 2 2 2 2 2 2 2 2 2 2 2 2 2 2 2 2 2 2 2 2 2 2 2 2 2 2 2 2 2 2 2 2 2 2 2 2 2 2 2 2 2 2 2 2 2 2 2 2 2 2 2 2 2 2 2 2 2 2 2 2 2 2 2 2 2 2 2 2 2 2 2 2 2 2 2 2 2 2 2 2 2 2 2 2 2 2 2 2 2 2 2 2 2 2 2 2 2 2 2 2 2 2 2 2 2 2 2 2 2 2 2 2 2 2 2 2 2 2 2 2 2 2 2 2 2 2 2 2 2 2 2 2 2 2 2 2 2 2 2 2 2 2 2 2 2 2 2 2 2 2 2 2 2 2 2 2 2 2 2 2 2 2 2 2 2 2 2 2 2 2 2 2 2 2 2 2 2 2 2 2 2 2 2 2 2 2 2 2 2 
324
3	1	61	0
3	6	152	1
3	64	302	2
3	4	100	3
3	5	99	4
2	98	5
3	7	96	6
3	8	95	7
3	9	146	8
3	3	93	9
3	11	241	10
3	16	148	11
3	13	323	12
3	10	322	13
3	15	311	14
3	20	310	15
3	17	62	16
3	80	308	17
3	19	144	18
3	24	249	19
3	21	246	20
3	18	245	21
2	243	22
3	12	150	23
3	25	232	24
3	22	230	25
3	2	161	26
3	28	49	27
3	29	48	28
3	30	306	29
3	31	303	30
3	32	297	31
3	33	295	32
3	34	162	33
3	35	97	34
2	78	35
3	39	104	36
3	36	103	37
3	260	102	38
3	38	101	39
3	43	108	40
3	40	107	41
3	37	106	42
3	42	105	43
3	45	91	44
3	140	90	45
3	41	94	46
3	186	121	47
3	306	45	48
3	48	44	49
2	276	50
3	54	151	51
3	65	229	52
3	143	160	53
3	53	159	54
3	58	158	55
2	50	56
3	60	156	57
3	57	155	58
3	61	154	59
3	59	153	60
3	152	14	61
3	308	165	62
3	121	118	63
3	130	321	64
3	161	198	65
3	67	312	66
3	79	314	67
2	274	68
3	70	316	69
3	71	315	70
3	72	318	71
3	73	317	72
3	74	320	73
3	196	319	74
3	175	83	75
3	26	65	76
3	222	248	77
2	175	78
3	69	313	79
3	82	305	80
3	63	222	81
3	44	299	82
3	85	4	83
3	83	3	84
2	5	85
3	89	7	86
3	86	6	87
3	84	9	88
3	88	8	89
3	87	1	90
3	90	0	91
3	149	130	92
3	100	19	93
3	107	247	94
3	146	21	95
3	95	20	96
3	78	75	97
2	22	98
3	98	25	99
3	99	24	100
3	102	252	101
3	182	251	102
3	104	254	103
3	101	253	104
3	106	256	105
3	103	255	106
3	108	258	107
3	105	257	108
3	112	30	109
3	109	29	110
3	114	32	111
3	111	31	112
3	115	34	113
3	113	33	114
2	35	115
3	76	52	116
3	164	26	117
3	27	201	118
3	185	88	119
3	110	28	120
3	120	27	121
3	123	272	122
3	128	271	123
3	125	274	124
3	122	273	125
3	127	276	126
3	141	275	127
3	129	56	128
3	126	50	129
3	131	244	130
3	81	77	131
3	124	68	132
3	134	216	133
3	138	215	134
3	136	214	135
3	133	213	136
2	212	137
3	139	211	138
3	137	210	139
3	147	87	140
3	142	218	141
3	135	217	142
3	55	157	143
3	249	225	144
3	304	111	145
3	93	18	146
3	195	86	147
3	62	172	148
3	263	131	149
3	323	173	150
3	159	231	151
3	96	15	152
3	154	238	153
3	14	237	154
3	156	240	155
3	153	239	156
3	158	234	157
3	155	233	158
3	160	236	159
3	157	235	160
3	302	242	161
3	97	185	162
3	206	113	163
3	184	2	164
3	166	58	165
3	167	57	166
3	168	60	167
3	0	59	168
3	170	54	169
3	171	53	170
3	172	143	171
3	165	55	172
3	169	51	173
2	286	174
2	85	175
3	177	284	176
3	174	283	177
3	179	282	178
3	176	281	179
3	181	280	180
3	178	279	181
3	183	278	182
3	180	277	183
3	92	64	184
3	75	84	185
3	300	120	186
3	188	205	187
3	189	204	188
3	190	203	189
3	191	202	190
3	192	209	191
3	193	208	192
2	207	193
3	117	76	194
3	119	89	195
3	197	200	196
3	187	199	197
3	242	12	198
3	205	142	199
3	199	141	200
3	49	82	201
3	209	134	202
3	202	133	203
3	203	136	204
3	204	135	205
2	115	206
2	137	207
3	207	139	208
3	208	138	209
2	212	210
2	210	211
1	212
2	216	213
2	213	214
2	211	215
2	215	216
2	214	217
2	217	218
3	220	266	219
3	221	265	220
2	264	221
3	118	262	222
3	224	270	223
3	225	269	224
3	226	268	225
3	219	267	226
3	228	260	227
3	223	259	228
3	198	23	229
3	243	220	230
3	236	296	231
3	230	219	232
3	240	294	233
3	233	293	234
3	234	292	235
3	235	291	236
3	311	290	237
3	237	289	238
3	238	288	239
3	239	287	240
3	148	171	241
3	307	13	242
2	221	243
3	77	250	244
3	144	224	245
3	245	223	246
3	258	66	247
3	262	17	248
3	232	226	249
3	248	16	250
3	278	74	251
3	251	73	252
3	252	72	253
3	253	71	254
3	254	70	255
3	255	69	256
3	256	79	257
3	257	67	258
3	270	183	259
3	259	182	260
3	194	116	261
3	201	80	262
3	309	81	263
2	174	264
3	264	177	265
3	265	176	266
3	266	179	267
3	267	178	268
3	268	181	269
3	269	180	270
2	56	271
2	271	272
2	272	273
2	273	274
2	218	275
2	275	276
3	280	197	277
3	277	196	278
3	282	188	279
3	279	187	280
3	284	190	281
3	281	189	282
3	286	192	283
3	283	191	284
3	250	11	285
2	193	286
3	288	37	287
3	289	36	288
3	290	39	289
3	227	38	290
3	292	41	291
3	293	40	292
3	294	43	293
3	287	42	294
3	162	119	295
3	291	46	296
3	295	195	297
3	145	112	298
3	91	168	299
3	301	110	300
3	298	109	301
3	321	307	302
3	297	147	303
3	163	114	304
3	299	167	305
3	303	140	306
3	285	10	307
3	305	166	308
3	47	63	309
3	246	228	310
3	310	227	311
3	314	132	312
3	316	125	313
3	313	124	314
3	318	123	315
3	315	122	316
3	320	129	317
3	317	128	318
3	200	127	319
3	319	126	320
3	244	285	321
3	241	170	322
3	322	169	323

8
 0.00000000 1.00000000
 0.00000000 1.00000000
 0.00000000 1.00000000
 1.00000000 0.00000000

8
 0.52103500 0.47896500
 0.69656800 0.30343200
 0.79617800 0.20382200
 0.42614900 0.57385100

8
 0.00000000 1.00000000
 1.00000000 0.00000000
 1.00000000 0.00000000
 0.00000000 1.00000000

8
 1.00000000 0.00000000
 0.00000000 1.00000000
 1.00000000 0.00000000
 1.00000000 0.00000000

8
 1.00000000 0.00000000
 1.00000000 0.00000000
 0.00000000 1.00000000
 1.00000000 0.00000000

4
 0.00000000 1.00000000
 1.00000000 0.00000000

8
 0.00000000 1.00000000
 0.00000000 1.00000000
 1.00000000 0.00000000
 0.00000000 1.00000000

8
 0.00000000 1.00000000
 1.00000000 0.00000000
 0.00000000 1.00000000
 0.00000000 1.00000000

8
 1.00000000 0.00000000
 1.00000000 0.00000000
 1.00000000 0.00000000
 0.00000000 1.00000000

8
 0.59348000 0.40652000
 0.38543200 0.61456800
 0.45956500 0.54043500
 0.88178600 0.11821400

8
 0.00000000 1.00000000
 1.00000000 0.00000000
 0.00000000 1.00000000
 0.00000000 1.00000000

8
 1.00000000 0.00000000
 0.00000000 1.00000000
 0.00000000 1.00000000
 1.00000000 0.00000000

8
 0.35723200 0.64276800
 0.92017100 0.07982860
 0.89906400 0.10093600
 0.91938000 0.08061980

8
 0.00000000 1.00000000
 1.00000000 0.00000000
 0.00000000 1.00000000
 0.00000000 1.00000000

8
 0.34503100 0.65496900
 0.56624600 0.43375400
 0.05386140 0.94613900
 0.55717800 0.44282200

8
 1.00000000 0.00000000
 1.00000000 0.00000000
 0.00000000 1.00000000
 0.00000000 1.00000000

8
 0.00000000 1.00000000
 1.00000000 0.00000000
 0.00000000 1.00000000
 1.00000000 0.00000000

8
 1.00000000 0.00000000
 0.00000000 1.00000000
 0.00000000 1.00000000
 1.00000000 0.00000000

8
 0.00000000 1.00000000
 0.00000000 1.00000000
 1.00000000 0.00000000
 0.00000000 1.00000000

8
 1.00000000 0.00000000
 0.00000000 1.00000000
 0.00000000 1.00000000
 0.00000000 1.00000000

8
 0.00000000 1.00000000
 1.00000000 0.00000000
 0.00000000 1.00000000
 0.00000000 1.00000000

8
 1.00000000 0.00000000
 1.00000000 0.00000000
 1.00000000 0.00000000
 0.00000000 1.00000000

4
 1.00000000 0.00000000
 0.00000000 1.00000000

8
 0.00000000 1.00000000
 0.00000000 1.00000000
 1.00000000 0.00000000
 0.00000000 1.00000000

8
 0.00000000 1.00000000
 0.00000000 1.00000000
 1.00000000 0.00000000
 1.00000000 0.00000000

8
 1.00000000 0.00000000
 1.00000000 0.00000000
 1.00000000 0.00000000
 0.00000000 1.00000000

8
 0.00000000 1.00000000
 1.00000000 0.00000000
 0.00000000 1.00000000
 1.00000000 0.00000000

8
 0.58738500 0.41261500
 0.12375100 0.87624900
 0.87753800 0.12246200
 0.96486600 0.03513390

8
 1.00000000 0.00000000
 0.00000000 1.00000000
 1.00000000 0.00000000
 1.00000000 0.00000000

8
 0.23950000 0.76050000
 0.36617400 0.63382600
 0.17114900 0.82885100
 0.79347700 0.20652300

8
 1.00000000 0.00000000
 0.00000000 1.00000000
 0.00000000 1.00000000
 0.00000000 1.00000000

8
 1.00000000 0.00000000
 1.00000000 0.00000000
 1.00000000 0.00000000
 0.00000000 1.00000000

8
 0.00000000 1.00000000
 1.00000000 0.00000000
 1.00000000 0.00000000
 0.00000000 1.00000000

8
 0.38165100 0.61834900
 0.94087700 0.05912270
 0.37748100 0.62251900
 0.92274300 0.07725740

8
 0.00000000 1.00000000
 1.00000000 0.00000000
 1.00000000 0.00000000
 1.00000000 0.00000000

4
 0.00000000 1.00000000
 1.00000000 0.00000000

8
 0.00000000 1.00000000
 0.00000000 1.00000000
 0.00000000 1.00000000
 1.00000000 0.00000000

8
 0.00000000 1.00000000
 1.00000000 0.00000000
 1.00000000 0.00000000
 0.00000000 1.00000000

8
 1.00000000 0.00000000
 1.00000000 0.00000000
 0.00000000 1.00000000
 1.00000000 0.00000000

8
 0.00000000 1.00000000
 0.00000000 1.00000000
 1.00000000 0.00000000
 1.00000000 0.00000000

8
 0.00000000 1.00000000
 1.00000000 0.00000000
 0.00000000 1.00000000
 0.00000000 1.00000000

8
 1.00000000 0.00000000
 0.00000000 1.00000000
 0.00000000 1.00000000
 0.00000000 1.00000000

8
 1.00000000 0.00000000
 1.00000000 0.00000000
 0.00000000 1.00000000
 1.00000000 0.00000000

8
 1.00000000 0.00000000
 0.00000000 1.00000000
 1.00000000 0.00000000
 0.00000000 1.00000000

8
 0.85740200 0.14259800
 0.28649800 0.71350200
 0.05773970 0.94226000
 0.76848200 0.23151800

8
 1.00000000 0.00000000
 1.00000000 0.00000000
 0.00000000 1.00000000
 0.00000000 1.00000000

8
 1.00000000 0.00000000
 0.00000000 1.00000000
 1.00000000 0.00000000
 1.00000000 0.00000000

8
 0.00000000 1.00000000
 0.00000000 1.00000000
 1.00000000 0.00000000
 0.00000000 1.00000000

8
 0.43270500 0.56729500
 0.65991500 0.34008500
 0.29987400 0.70012600
 0.91896500 0.08103460

8
 1.00000000 0.00000000
 0.00000000 1.00000000
 0.00000000 1.00000000
 0.00000000 1.00000000

4
 0.00000000 1.00000000
 1.00000000 0.00000000

8
 1.00000000 0.00000000
 1.00000000 0.00000000
 1.00000000 0.00000000
 0.00000000 1.00000000

8
 0.00000000 1.00000000
 1.00000000 0.00000000
 0.00000000 1.00000000
 0.00000000 1.00000000

8
 1.00000000 0.00000000
 1.00000000 0.00000000
 0.00000000 1.00000000
 1.00000000 0.00000000

8
 1.00000000 0.00000000
 1.00000000 0.00000000
 1.00000000 0.00000000
 0.00000000 1.00000000

8
 1.00000000 0.00000000
 0.00000000 1.00000000
 0.00000000 1.00000000
 1.00000000 0.00000000

4
 0.00000000 1.00000000
 1.00000000 0.00000000

8
 0.00000000 1.00000000
 0.00000000 1.00000000
 1.00000000 0.00000000
 1.00000000 0.00000000

8
 0.00000000 1.00000000
 0.00000000 1.00000000
 1.00000000 0.00000000
 1.00000000 0.00000000

8
 1.00000000 0.00000000
 1.00000000 0.00000000
 0.00000000 1.00000000
 0.00000000 1.00000000

8
 0.46999300 0.53000700
 0.17643900 0.82356100
 0.78284200 0.21715800
 0.38373100 0.61626900

8
 0.00000000 1.00000000
 1.00000000 0.00000000
 0.00000000 1.00000000
 0.00000000 1.00000000

8
 1.00000000 0.00000000
 1.00000000 0.00000000
 0.00000000 1.00000000
 0.00000000 1.00000000

8
 1.00000000 0.00000000
 0.00000000 1.00000000
 1.00000000 0.00000000
 1.00000000 0.00000000

8
 1.00000000 0.00000000
 1.00000000 0.00000000
 0.00000000 1.00000000
 0.00000000 1.00000000

8
 0.00000000 1.00000000
 1.00000000 0.00000000
 1.00000000 0.00000000
 0.00000000 1.00000000

8
 1.00000000 0.00000000
 0.00000000 1.00000000
 0.00000000 1.00000000
 0.00000000 1.00000000

8
 0.00000000 1.00000000
 0.00000000 1.00000000
 1.00000000 0.00000000
 0.00000000 1.00000000

4
 1.00000000 0.00000000
 0.00000000 1.00000000

8
 1.00000000 0.00000000
 0.00000000 1.00000000
 0.00000000 1.00000000
 0.00000000 1.00000000

8
 0.00000000 1.00000000
 1.00000000 0.00000000
 1.00000000 0.00000000
 0.00000000 1.00000000

8
 0.00000000 1.00000000
 0.00000000 1.00000000
 0.00000000 1.00000000
 1.00000000 0.00000000

8
 0.00000000 1.00000000
 1.00000000 0.00000000
 1.00000000 0.00000000
 0.00000000 1.00000000

8
 1.00000000 0.00000000
 0.00000000 1.00000000
 1.00000000 0.00000000
 1.00000000 0.00000000

8
 0.00000000 1.00000000
 1.00000000 0.00000000
 0.00000000 1.00000000
 0.00000000 1.00000000

8
 0.00000000 1.00000000
 0.00000000 1.00000000
 1.00000000 0.00000000
 0.00000000 1.00000000

8
 1.00000000 0.00000000
 0.00000000 1.00000000
 1.00000000 0.00000000
 0.00000000 1.00000000

8
 1.00000000 0.00000000
 1.00000000 0.00000000
 1.00000000 0.00000000
 0.00000000 1.00000000

4
 1.00000000 0.00000000
 0.00000000 1.00000000

8
 0.00000000 1.00000000
 1.00000000 0.00000000
 1.00000000 0.00000000
 1.00000000 0.00000000

8
 1.00000000 0.00000000
 0.00000000 1.00000000
 1.00000000 0.00000000
 1.00000000 0.00000000

8
 1.00000000 0.00000000
 0.00000000 1.00000000
 1.00000000 0.00000000
 1.00000000 0.00000000

8
 1.00000000 0.00000000
 1.00000000 0.00000000
 0.00000000 1.00000000
 0.00000000 1.00000000

8
 0.00000000 1.00000000
 1.00000000 0.00000000
 1.00000000 0.00000000
 1.00000000 0.00000000

8
 1.00000000 0.00000000
 1.00000000 0.00000000
 1.00000000 0.00000000
 0.00000000 1.00000000

4
 0.00000000 1.00000000
 1.00000000 0.00000000

8
 1.00000000 0.00000000
 1.00000000 0.00000000
 1.00000000 0.00000000
 0.00000000 1.00000000

8
 1.00000000 0.00000000
 1.00000000 0.00000000
 0.00000000 1.00000000
 0.00000000 1.00000000

8
 0.00000000 1.00000000
 1.00000000 0.00000000
 0.00000000 1.00000000
 0.00000000 1.00000000

8
 1.00000000 0.00000000
 0.00000000 1.00000000
 0.00000000 1.00000000
 1.00000000 0.00000000

8
 0.00000000 1.00000000
 0.00000000 1.00000000
 0.00000000 1.00000000
 1.00000000 0.00000000

8
 1.00000000 0.00000000
 0.00000000 1.00000000
 1.00000000 0.00000000
 1.00000000 0.00000000

8
 0.00000000 1.00000000
 0.00000000 1.00000000
 0.00000000 1.00000000
 1.00000000 0.00000000

8
 1.00000000 0.00000000
 0.00000000 1.00000000
 1.00000000 0.00000000
 1.00000000 0.00000000

8
 0.00000000 1.00000000
 1.00000000 0.00000000
 0.00000000 1.00000000
 0.00000000 1.00000000

8
 0.24143300 0.75856700
 0.29664800 0.70335200
 0.90695900 0.09304090
 0.07649690 0.92350300

8
 0.20605200 0.79394800
 0.72607200 0.27392800
 0.11213100 0.88786900
 0.71379200 0.28620800

8
 1.00000000 0.00000000
 1.00000000 0.00000000
 1.00000000 0.00000000
 0.00000000 1.00000000

4
 1.00000000 0.00000000
 0.00000000 1.00000000

8
 0.78955000 0.21045000
 0.77948000 0.22052000
 0.86658100 0.13341900
 0.53065600 0.46934400

8
 0.76728000 0.23272000
 0.34537900 0.65462100
 0.83954400 0.16045600
 0.23991600 0.76008400

8
 0.00000000 1.00000000
 1.00000000 0.00000000
 1.00000000 0.00000000
 1.00000000 0.00000000

8
 0.00000000 1.00000000
 1.00000000 0.00000000
 0.00000000 1.00000000
 1.00000000 0.00000000

8
 0.94392300 0.05607700
 0.44624000 0.55376000
 0.78071900 0.21928100
 0.28992000 0.71008000

8
 0.00000000 1.00000000
 0.00000000 1.00000000
 0.00000000 1.00000000
 1.00000000 0.00000000

8
 0.07679560 0.92320400
 0.65587000 0.34413000
 0.64545000 0.35455000
 0.31819400 0.68180600

8
 0.00000000 1.00000000
 0.00000000 1.00000000
 0.00000000 1.00000000
 1.00000000 0.00000000

8
 0.00000000 1.00000000
 1.00000000 0.00000000
 0.00000000 1.00000000
 1.00000000 0.00000000

8
 0.00000000 1.00000000
 1.00000000 0.00000000
 0.00000000 1.00000000
 1.00000000 0.00000000

8
 0.68630900 0.31369100
 0.90311500 0.09688500
 0.24267800 0.75732200
 0.96609000 0.03391010

8
 0.48589800 0.51410200
 0.78816300 0.21183700
 0.56048700 0.43951300
 0.49241000 0.50759000

8
 0.30068500 0.69931500
 0.48862700 0.51137300
 0.29710100 0.70289900
 0.21737700 0.78262300

8
 0.08017900 0.91982100
 0.73211600 0.26788400
 0.17652900 0.82347100
 0.01372830 0.98627200

8
 0.00000000 1.00000000
 0.00000000 1.00000000
 1.00000000 0.00000000
 1.00000000 0.00000000

8
 1.00000000 0.00000000
 0.00000000 1.00000000
 0.00000000 1.00000000
 0.00000000 1.00000000

4
 0.00651195 0.99348800
 0.60386500 0.39613500

8
 1.00000000 0.00000000
 1.00000000 0.00000000
 0.00000000 1.00000000
 1.00000000 0.00000000

8
 0.00000000 1.00000000
 1.00000000 0.00000000
 0.00000000 1.00000000
 1.00000000 0.00000000

8
 0.00000000 1.00000000
 1.00000000 0.00000000
 0.00000000 1.00000000
 1.00000000 0.00000000

8
 1.00000000 0.00000000
 0.00000000 1.00000000
 0.00000000 1.00000000
 0.00000000 1.00000000

8
 1.00000000 0.00000000
 1.00000000 0.00000000
 1.00000000 0.00000000
 0.00000000 1.00000000

8
 0.27784200 0.72215800
 0.43425500 0.56574500
 0.23678200 0.76321800
 0.21763700 0.78236300

8
 0.00000000 1.00000000
 0.00000000 1.00000000
 1.00000000 0.00000000
 1.00000000 0.00000000

8
 0.00000000 1.00000000
 1.00000000 0.00000000
 0.00000000 1.00000000
 0.00000000 1.00000000

8
 1.00000000 0.00000000
 0.00000000 1.00000000
 0.00000000 1.00000000
 0.00000000 1.00000000

8
 0.00000000 1.00000000
 1.00000000 0.00000000
 0.00000000 1.00000000
 0.00000000 1.00000000

8
 0.76810300 0.23189700
 0.79896900 0.20103100
 0.33269600 0.66730400
 0.85581900 0.14418100

8
 0.00000000 1.00000000
 0.00000000 1.00000000
 1.00000000 0.00000000
 1.00000000 0.00000000

8
 1.00000000 0.00000000
 1.00000000 0.00000000
 0.00000000 1.00000000
 0.00000000 1.00000000

8
 0.02253860 0.97746100
 0.49218600 0.50781400
 0.99577200 0.00422840
 0.73473100 0.26526900

8
 0.00000000 1.00000000
 0.00000000 1.00000000
 1.00000000 0.00000000
 1.00000000 0.00000000

8
 1.00000000 0.00000000
 0.00000000 1.00000000
 0.00000000 1.00000000
 1.00000000 0.00000000

8
 1.00000000 0.00000000
 1.00000000 0.00000000
 1.00000000 0.00000000
 0.00000000 1.00000000

8
 0.00000000 1.00000000
 1.00000000 0.00000000
 0.00000000 1.00000000
 1.00000000 0.00000000

8
 0.00000000 1.00000000
 0.00000000 1.00000000
 0.00000000 1.00000000
 1.00000000 0.00000000

8
 1.00000000 0.00000000
 0.00000000 1.00000000
 0.00000000 1.00000000
 1.00000000 0.00000000

8
 0.00000000 1.00000000
 0.00000000 1.00000000
 1.00000000 0.00000000
 1.00000000 0.00000000

4
 1.00000000 0.00000000
 0.00000000 1.00000000

8
 0.00000000 1.00000000
 1.00000000 0.00000000
 1.00000000 0.00000000
 0.00000000 1.00000000

8
 0.00000000 1.00000000
 1.00000000 0.00000000
 1.00000000 0.00000000
 0.00000000 1.00000000

8
 0.00000000 1.00000000
 0.00000000 1.00000000
 0.00000000 1.00000000
 1.00000000 0.00000000

8
 0.00000000 1.00000000
 1.00000000 0.00000000
 1.00000000 0.00000000
 0.00000000 1.00000000

8
 1.00000000 0.00000000
 0.00000000 1.00000000
 1.00000000 0.00000000
 0.00000000 1.00000000

8
 0.00000000 1.00000000
 1.00000000 0.00000000
 1.00000000 0.00000000
 0.00000000 1.00000000

8
 0.31298800 0.68701200
 0.13108400 0.86891600
 0.22294400 0.77705600
 0.55544900 0.44455100

8
 0.77926400 0.22073600
 0.89160800 0.10839200
 0.67551600 0.32448400
 0.47643600 0.52356400

8
 0.19377400 0.80622600
 0.00636716 0.99363300
 0.90761800 0.09238210
 0.91373800 0.08626220

8
 0.53601800 0.46398200
 0.00440154 0.99559800
 0.91561200 0.08438810
 0.09651580 0.90348400

8
 1.00000000 0.00000000
 1.00000000 0.00000000
 1.00000000 0.00000000
 0.00000000 1.00000000

8
 0.00000000 1.00000000
 1.00000000 0.00000000
 0.00000000 1.00000000
 0.00000000 1.00000000

8
 0.00000000 1.00000000
 1.00000000 0.00000000
 0.00000000 1.00000000
 1.00000000 0.00000000

8
 0.48613500 0.51386500
 0.29909300 0.70090700
 0.64957500 0.35042500
 0.32934800 0.67065200

8
 0.00000000 1.00000000
 1.00000000 0.00000000
 1.00000000 0.00000000
 1.00000000 0.00000000

8
 0.00000000 1.00000000
 0.00000000 1.00000000
 1.00000000 0.00000000
 0.00000000 1.00000000

8
 1.00000000 0.00000000
 0.00000000 1.00000000
 0.00000000 1.00000000
 1.00000000 0.00000000

8
 0.00000000 1.00000000
 1.00000000 0.00000000
 0.00000000 1.00000000
 0.00000000 1.00000000

8
 0.00000000 1.00000000
 1.00000000 0.00000000
 0.00000000 1.00000000
 1.00000000 0.00000000

8
 0.00000000 1.00000000
 1.00000000 0.00000000
 1.00000000 0.00000000
 1.00000000 0.00000000

8
 1.00000000 0.00000000
 1.00000000 0.00000000
 0.00000000 1.00000000
 1.00000000 0.00000000

8
 1.00000000 0.00000000
 1.00000000 0.00000000
 0.00000000 1.00000000
 0.00000000 1.00000000

8
 0.51584000 0.48416000
 0.35971800 0.64028200
 0.20562400 0.79437600
 0.11297800 0.88702200

8
 1.00000000 0.00000000
 0.00000000 1.00000000
 1.00000000 0.00000000
 0.00000000 1.00000000

8
 1.00000000 0.00000000
 0.00000000 1.00000000
 0.00000000 1.00000000
 1.00000000 0.00000000

8
 0.93063600 0.06936360
 0.10974000 0.89026000
 0.51965300 0.48034700
 0.98878300 0.01121720

8
 0.00000000 1.00000000
 1.00000000 0.00000000
 0.00000000 1.00000000
 0.00000000 1.00000000

8
 0.41648100 0.58351900
 0.12327300 0.87672700
 0.95049100 0.04950920
 0.58543000 0.41457000

8
 0.00000000 1.00000000
 1.00000000 0.00000000
 1.00000000 0.00000000
 1.00000000 0.00000000

8
 1.00000000 0.00000000
 1.00000000 0.00000000
 1.00000000 0.00000000
 0.00000000 1.00000000

8
 0.07323230 0.92676800
 0.41756800 0.58243200
 0.28612400 0.71387600
 0.53279800 0.46720200

8
 0.00000000 1.00000000
 1.00000000 0.00000000
 1.00000000 0.00000000
 1.00000000 0.00000000

8
 0.00000000 1.00000000
 1.00000000 0.00000000
 0.00000000 1.00000000
 0.00000000 1.00000000

8
 1.00000000 0.00000000
 0.00000000 1.00000000
 1.00000000 0.00000000
 1.00000000 0.00000000

8
 1.00000000 0.00000000
 0.00000000 1.00000000
 0.00000000 1.00000000
 0.00000000 1.00000000

8
 0.88554100 0.11445900
 0.28495900 0.71504100
 0.57735200 0.42264800
 0.65831400 0.34168600

4
 0.00000000 1.00000000
 1.00000000 0.00000000

4
 0.00000000 1.00000000
 1.00000000 0.00000000

8
 0.27583100 0.72416900
 0.29463600 0.70536400
 0.45920700 0.54079300
 0.32337500 0.67662500

8
 1.00000000 0.00000000
 0.00000000 1.00000000
 1.00000000 0.00000000
 1.00000000 0.00000000

8
 1.00000000 0.00000000
 1.00000000 0.00000000
 0.00000000 1.00000000
 1.00000000 0.00000000

8
 0.00000000 1.00000000
 0.00000000 1.00000000
 1.00000000 0.00000000
 1.00000000 0.00000000

8
 1.00000000 0.00000000
 0.00000000 1.00000000
 1.00000000 0.00000000
 1.00000000 0.00000000

8
 1.00000000 0.00000000
 0.00000000 1.00000000
 1.00000000 0.00000000
 1.00000000 0.00000000

8
 0.21261100 0.78738900
 0.79406400 0.20593600
 0.24139900 0.75860100
 0.53598600 0.46401400

8
 0.00000000 1.00000000
 0.00000000 1.00000000
 0.00000000 1.00000000
 1.00000000 0.00000000

8
 0.00000000 1.00000000
 0.00000000 1.00000000
 0.00000000 1.00000000
 1.00000000 0.00000000

8
 0.68909500 0.31090500
 0.22379100 0.77620900
 0.91108000 0.08892050
 0.79781900 0.20218100

8
 0.00000000 1.00000000
 1.00000000 0.00000000
 1.00000000 0.00000000
 1.00000000 0.00000000

8
 1.00000000 0.00000000
 0.00000000 1.00000000
 1.00000000 0.00000000
 1.00000000 0.00000000

8
 0.00000000 1.00000000
 1.00000000 0.00000000
 1.00000000 0.00000000
 0.00000000 1.00000000

8
 0.58336700 0.41663300
 0.32151700 0.67848300
 0.48934800 0.51065200
 0.86927700 0.13072300

8
 1.00000000 0.00000000
 1.00000000 0.00000000
 0.00000000 1.00000000
 1.00000000 0.00000000

8
 1.00000000 0.00000000
 1.00000000 0.00000000
 1.00000000 0.00000000
 0.00000000 1.00000000

8
 1.00000000 0.00000000
 0.00000000 1.00000000
 0.00000000 1.00000000
 0.00000000 1.00000000

4
 0.00000000 1.00000000
 1.00000000 0.00000000

8
 1.00000000 0.00000000
 0.00000000 1.00000000
 0.00000000 1.00000000
 1.00000000 0.00000000

8
 1.00000000 0.00000000
 1.00000000 0.00000000
 0.00000000 1.00000000
 0.00000000 1.00000000

8
 1.00000000 0.00000000
 0.00000000 1.00000000
 1.00000000 0.00000000
 0.00000000 1.00000000

8
 0.00000000 1.00000000
 1.00000000 0.00000000
 0.00000000 1.00000000
 0.00000000 1.00000000

8
 0.00000000 1.00000000
 0.00000000 1.00000000
 1.00000000 0.00000000
 1.00000000 0.00000000

8
 0.02325410 0.97674600
 0.54531100 0.45468900
 0.88777300 0.11222700
 0.18813900 0.81186100

8
 0.71117000 0.28883000
 0.33310100 0.66689900
 0.47192800 0.52807200
 0.55398900 0.44601100

8
 0.00000000 1.00000000
 1.00000000 0.00000000
 0.00000000 1.00000000
 0.00000000 1.00000000

8
 0.94281300 0.05718650
 0.58387100 0.41612900
 0.30565000 0.69435000
 0.52917500 0.47082500

8
 1.00000000 0.00000000
 0.00000000 1.00000000
 1.00000000 0.00000000
 1.00000000 0.00000000

8
 0.00000000 1.00000000
 0.00000000 1.00000000
 1.00000000 0.00000000
 1.00000000 0.00000000

8
 0.00000000 1.00000000
 0.00000000 1.00000000
 1.00000000 0.00000000
 1.00000000 0.00000000

4
 0.30585200 0.69414800
 0.44761000 0.55239000

4
 1.00000000 0.00000000
 0.00000000 1.00000000

8
 1.00000000 0.00000000
 1.00000000 0.00000000
 0.00000000 1.00000000
 0.00000000 1.00000000

8
 0.14496100 0.85503900
 0.52888600 0.47111400
 0.84281900 0.15718100
 0.40991600 0.59008400

4
 0.58321200 0.41678800
 0.18371100 0.81628900

4
 0.00000000 1.00000000
 1.00000000 0.00000000

2
 0.18995700 0.81004300

4
 0.00000000 1.00000000
 1.00000000 0.00000000

4
 1.00000000 0.00000000
 0.00000000 1.00000000

4
 1.00000000 0.00000000
 0.00000000 1.00000000

4
 1.00000000 0.00000000
 0.00000000 1.00000000

4
 0.41672400 0.58327600
 0.16538400 0.83461600

4
 0.00000000 1.00000000
 1.00000000 0.00000000

8
 1.00000000 0.00000000
 1.00000000 0.00000000
 1.00000000 0.00000000
 0.00000000 1.00000000

8
 0.10516200 0.89483800
 0.16926200 0.83073800
 0.79724200 0.20275800
 0.33134300 0.66865700

4
 0.00000000 1.00000000
 1.00000000 0.00000000

8
 0.15047100 0.84952900
 0.66998200 0.33001800
 0.27999800 0.72000200
 0.95583700 0.04416260

8
 0.04470790 0.95529200
 0.64213200 0.35786800
 0.25118100 0.74881900
 0.56888500 0.43111500

8
 1.00000000 0.00000000
 1.00000000 0.00000000
 1.00000000 0.00000000
 0.00000000 1.00000000

8
 1.00000000 0.00000000
 0.00000000 1.00000000
 1.00000000 0.00000000
 1.00000000 0.00000000

8
 0.00000000 1.00000000
 1.00000000 0.00000000
 0.00000000 1.00000000
 0.00000000 1.00000000

8
 0.00000000 1.00000000
 0.00000000 1.00000000
 1.00000000 0.00000000
 0.00000000 1.00000000

8
 0.00000000 1.00000000
 1.00000000 0.00000000
 0.00000000 1.00000000
 0.00000000 1.00000000

8
 0.06964830 0.93035200
 0.46720900 0.53279100
 0.49805400 0.50194600
 0.32523800 0.67476200

8
 0.00000000 1.00000000
 1.00000000 0.00000000
 1.00000000 0.00000000
 0.00000000 1.00000000

8
 1.00000000 0.00000000
 0.00000000 1.00000000
 1.00000000 0.00000000
 1.00000000 0.00000000

8
 0.80778400 0.19221600
 0.95394800 0.04605160
 0.09605330 0.90394700
 0.64903400 0.35096600

8
 0.00000000 1.00000000
 0.00000000 1.00000000
 1.00000000 0.00000000
 0.00000000 1.00000000

8
 0.00000000 1.00000000
 1.00000000 0.00000000
 1.00000000 0.00000000
 1.00000000 0.00000000

8
 1.00000000 0.00000000
 0.00000000 1.00000000
 0.00000000 1.00000000
 0.00000000 1.00000000

8
 0.00000000 1.00000000
 0.00000000 1.00000000
 1.00000000 0.00000000
 1.00000000 0.00000000

8
 1.00000000 0.00000000
 0.00000000 1.00000000
 1.00000000 0.00000000
 1.00000000 0.00000000

8
 0.00000000 1.00000000
 0.00000000 1.00000000
 0.00000000 1.00000000
 1.00000000 0.00000000

8
 1.00000000 0.00000000
 0.00000000 1.00000000
 1.00000000 0.00000000
 0.00000000 1.00000000

8
 0.00000000 1.00000000
 1.00000000 0.00000000
 1.00000000 0.00000000
 1.00000000 0.00000000

8
 0.00000000 1.00000000
 1.00000000 0.00000000
 1.00000000 0.00000000
 1.00000000 0.00000000

8
 0.37342500 0.62657500
 0.45281600 0.54718400
 0.64596400 0.35403600
 0.06666580 0.93333400

4
 0.00000000 1.00000000
 1.00000000 0.00000000

8
 0.78179200 0.21820800
 0.23778700 0.76221300
 0.93444000 0.06556040
 0.57526800 0.42473200

8
 0.81377500 0.18622500
 0.44149300 0.55850700
 0.82749700 0.17250300
 0.48012400 0.51987600

8
 0.00000000 1.00000000
 1.00000000 0.00000000
 1.00000000 0.00000000
 0.00000000 1.00000000

8
 0.00000000 1.00000000
 0.00000000 1.00000000
 0.00000000 1.00000000
 1.00000000 0.00000000

8
 0.00000000 1.00000000
 1.00000000 0.00000000
 0.00000000 1.00000000
 0.00000000 1.00000000

8
 0.54529000 0.45471000
 0.00098293 0.99901700
 0.43989100 0.56010900
 0.99911600 0.00088382

8
 1.00000000 0.00000000
 0.00000000 1.00000000
 0.00000000 1.00000000
 0.00000000 1.00000000

8
 1.00000000 0.00000000
 0.00000000 1.00000000
 1.00000000 0.00000000
 0.00000000 1.00000000

8
 0.04104690 0.95895300
 0.96933900 0.03066130
 0.15960300 0.84039700
 0.35050100 0.64949900

8
 0.00000000 1.00000000
 0.00000000 1.00000000
 1.00000000 0.00000000
 1.00000000 0.00000000

8
 0.00000000 1.00000000
 1.00000000 0.00000000
 1.00000000 0.00000000
 0.00000000 1.00000000

8
 0.00000000 1.00000000
 1.00000000 0.00000000
 1.00000000 0.00000000
 0.00000000 1.00000000

8
 0.00000000 1.00000000
 1.00000000 0.00000000
 0.00000000 1.00000000
 1.00000000 0.00000000

8
 1.00000000 0.00000000
 1.00000000 0.00000000
 0.00000000 1.00000000
 0.00000000 1.00000000

8
 1.00000000 0.00000000
 0.00000000 1.00000000
 0.00000000 1.00000000
 0.00000000 1.00000000

8
 0.00000000 1.00000000
 0.00000000 1.00000000
 1.00000000 0.00000000
 1.00000000 0.00000000

8
 1.00000000 0.00000000
 0.00000000 1.00000000
 0.00000000 1.00000000
 0.00000000 1.00000000

8
 0.83981300 0.16018700
 0.90266600 0.09733440
 0.41336600 0.58663400
 0.34607400 0.65392600

8
 0.33570100 0.66429900
 0.17562300 0.82437700
 0.90592300 0.09407730
 0.30062100 0.69937900

8
 0.88757100 0.11242900
 0.44634300 0.55365700
 0.92492700 0.07507340
 0.03350090 0.96649900

4
 0.32596900 0.67403100
 0.85880300 0.14119700

8
 0.00000000 1.00000000
 0.00000000 1.00000000
 0.00000000 1.00000000
 1.00000000 0.00000000

8
 1.00000000 0.00000000
 0.00000000 1.00000000
 1.00000000 0.00000000
 1.00000000 0.00000000

8
 0.00000000 1.00000000
 0.00000000 1.00000000
 1.00000000 0.00000000
 1.00000000 0.00000000

8
 1.00000000 0.00000000
 0.00000000 1.00000000
 1.00000000 0.00000000
 0.00000000 1.00000000

8
 1.00000000 0.00000000
 1.00000000 0.00000000
 1.00000000 0.00000000
 0.00000000 1.00000000

8
 1.00000000 0.00000000
 0.00000000 1.00000000
 0.00000000 1.00000000
 0.00000000 1.00000000

4
 1.00000000 0.00000000
 0.00000000 1.00000000

4
 1.00000000 0.00000000
 0.00000000 1.00000000

4
 1.00000000 0.00000000
 0.00000000 1.00000000

4
 0.00000000 1.00000000
 1.00000000 0.00000000

4
 0.12104300 0.87895700
 0.70142100 0.29857900

4
 1.00000000 0.00000000
 0.00000000 1.00000000

8
 0.00000000 1.00000000
 0.00000000 1.00000000
 0.00000000 1.00000000
 1.00000000 0.00000000

8
 0.09815590 0.90184400
 0.75426900 0.24573100
 0.23661200 0.76338800
 0.20319400 0.79680600

8
 0.42379000 0.57621000
 0.82127400 0.17872600
 0.44137800 0.55862200
 0.71653900 0.28346100

8
 1.00000000 0.00000000
 0.00000000 1.00000000
 0.00000000 1.00000000
 0.00000000 1.00000000

8
 1.00000000 0.00000000
 0.00000000 1.00000000
 0.00000000 1.00000000
 1.00000000 0.00000000

8
 1.00000000 0.00000000
 1.00000000 0.00000000
 0.00000000 1.00000000
 0.00000000 1.00000000

8
 0.00000000 1.00000000
 1.00000000 0.00000000
 1.00000000 0.00000000
 0.00000000 1.00000000

8
 0.13241800 0.86758200
 0.25387900 0.74612100
 0.10503800 0.89496200
 0.35769700 0.64230300

8
 0.63354700 0.36645300
 0.42734100 0.57265900
 0.16407500 0.83592500
 0.55251200 0.44748800

4
 1.00000000 0.00000000
 0.00000000 1.00000000

8
 1.00000000 0.00000000
 0.00000000 1.00000000
 1.00000000 0.00000000
 1.00000000 0.00000000

8
 0.00000000 1.00000000
 0.00000000 1.00000000
 1.00000000 0.00000000
 0.00000000 1.00000000

8
 0.00000000 1.00000000
 0.00000000 1.00000000
 1.00000000 0.00000000
 1.00000000 0.00000000

8
 0.00000000 1.00000000
 0.00000000 1.00000000
 1.00000000 0.00000000
 0.00000000 1.00000000

8
 1.00000000 0.00000000
 1.00000000 0.00000000
 0.00000000 1.00000000
 0.00000000 1.00000000

8
 0.00000000 1.00000000
 1.00000000 0.00000000
 0.00000000 1.00000000
 1.00000000 0.00000000

8
 0.83854700 0.16145300
 0.44923700 0.55076300
 0.35194900 0.64805100
 0.64739500 0.35260500

8
 0.00000000 1.00000000
 1.00000000 0.00000000
 1.00000000 0.00000000
 0.00000000 1.00000000

8
 0.00000000 1.00000000
 0.00000000 1.00000000
 1.00000000 0.00000000
 0.00000000 1.00000000

8
 1.00000000 0.00000000
 0.00000000 1.00000000
 0.00000000 1.00000000
 0.00000000 1.00000000

8
 0.00000000 1.00000000
 0.00000000 1.00000000
 1.00000000 0.00000000
 0.00000000 1.00000000

8
 0.00000000 1.00000000
 1.00000000 0.00000000
 1.00000000 0.00000000
 1.00000000 0.00000000

8
 1.00000000 0.00000000
 0.00000000 1.00000000
 1.00000000 0.00000000
 1.00000000 0.00000000

8
 0.56693800 0.43306200
 0.44129800 0.55870200
 0.32703200 0.67296800
 0.51317400 0.48682600

8
 1.00000000 0.00000000
 1.00000000 0.00000000
 1.00000000 0.00000000
 0.00000000 1.00000000

8
 1.00000000 0.00000000
 0.00000000 1.00000000
 1.00000000 0.00000000
 0.00000000 1.00000000

8
 0.00000000 1.00000000
 0.00000000 1.00000000
 1.00000000 0.00000000
 0.00000000 1.00000000

8
 0.00000000 1.00000000
 1.00000000 0.00000000
 1.00000000 0.00000000
 1.00000000 0.00000000

8
 0.72391400 0.27608600
 0.06431300 0.93568700
 0.78647900 0.21352100
 0.46007900 0.53992100

8
 0.57736300 0.42263700
 0.77254700 0.22745300
 0.11407400 0.88592600
 0.51247300 0.48752700

8
 0.00000000 1.00000000
 1.00000000 0.00000000
 0.00000000 1.00000000
 0.00000000 1.00000000

8
 1.00000000 0.00000000
 0.00000000 1.00000000
 0.00000000 1.00000000
 1.00000000 0.00000000

8
 0.00000000 1.00000000
 1.00000000 0.00000000
 1.00000000 0.00000000
 1.00000000 0.00000000

8
 1.00000000 0.00000000
 1.00000000 0.00000000
 0.00000000 1.00000000
 0.00000000 1.00000000

8
 1.00000000 0.00000000
 1.00000000 0.00000000
 1.00000000 0.00000000
 0.00000000 1.00000000

8
 0.17078900 0.82921100
 0.12610100 0.87389900
 0.62579200 0.37420800
 0.71797200 0.28202800

8
 0.00000000 1.00000000
 0.00000000 1.00000000
 0.00000000 1.00000000
 1.00000000 0.00000000

8
 0.00000000 1.00000000
 0.00000000 1.00000000
 1.00000000 0.00000000
 1.00000000 0.00000000

8
 0.27875700 0.72124300
 0.46925000 0.53075000
 0.85719800 0.14280200
 0.46689600 0.53310400

8
 1.00000000 0.00000000
 1.00000000 0.00000000
 1.00000000 0.00000000
 0.00000000 1.00000000

8
 1.00000000 0.00000000
 1.00000000 0.00000000
 1.00000000 0.00000000
 0.00000000 1.00000000

8
 1.00000000 0.00000000
 0.00000000 1.00000000
 1.00000000 0.00000000
 0.00000000 1.00000000

8
 1.00000000 0.00000000
 1.00000000 0.00000000
 1.00000000 0.00000000
 0.00000000 1.00000000

8
 1.00000000 0.00000000
 0.00000000 1.00000000
 1.00000000 0.00000000
 1.00000000 0.00000000

8
 1.00000000 0.00000000
 0.00000000 1.00000000
 1.00000000 0.00000000
 0.00000000 1.00000000

8
 0.00000000 1.00000000
 0.00000000 1.00000000
 0.00000000 1.00000000
 1.00000000 0.00000000

8
 1.00000000 0.00000000
 0.00000000 1.00000000
 0.00000000 1.00000000
 0.00000000 1.00000000

